29 = ndim
28 = nblocks
6 6 6 6 6 6 6 1 1 1 1 1 1 1 1 1 1 1 1 1 1 1 1 1 1 1 1 1 = blockstruct
0.0, 0.0, 0.0, 0.0, 0.0, 0.0, 0.0, 0.0, 0.0, 0.0, 0.0, 0.0, 0.0, 0.0, 0.0, 0.0, 0.0, 0.0, 0.0, 0.0, 0.0, 0.0, 0.0, 0.0, 0.0, 0.0, 0.0, 0.0, 0.0 = objcoeffs
0 1 3 3 0.10574358552529795
0 2 1 1 -3.483721503634561
0 2 1 2 0.1439859131322725
0 2 1 3 -0.22009802796161582
0 2 1 6 -7.928215635579273
0 2 2 3 -0.24349002208467585
0 2 2 6 0.14705091199791231
0 2 3 3 -2.94621684551808
0 2 3 4 7.928215635579273
0 2 3 5 -0.14705091199791231
0 3 1 1 -0.019231617102268395
0 3 1 2 0.018210709154910742
0 3 1 3 0.054134945364190834
0 3 1 6 0.06759812446353342
0 3 2 3 0.03291802632500862
0 3 2 6 -0.004343322533372662
0 3 3 3 0.22736094192670908
0 3 3 4 -0.06759812446353342
0 3 3 5 0.004343322533372662
0 4 1 1 -1.3972930109167692
0 4 1 2 -0.043168093043724376
0 4 1 3 -0.017405752417104403
0 4 1 6 -3.469984266613347
0 4 2 3 0.06619793601322335
0 4 2 6 -0.0020115797919459943
0 4 3 3 -1.2932845000249946
0 4 3 4 3.469984266613347
0 4 3 5 0.0020115797919459943
0 5 1 1 -0.06754349171386326
0 5 1 2 -0.05640485908377975
0 5 1 3 -0.03522675792071327
0 5 1 6 0.001505797717220609
0 5 2 3 0.02766250819615261
0 5 2 6 -0.018362154156554233
0 5 3 3 0.08699020094194038
0 5 3 4 -0.001505797717220609
0 5 3 5 0.018362154156554233
0 6 1 1 -0.134430745284518
0 6 1 2 -0.024956813062601377
0 6 1 3 0.03471972482189073
0 6 1 6 -0.6399820800201741
0 6 2 3 0.004386302412588788
0 6 2 6 0.005340537336686215
0 6 3 3 -0.15870781655223049
0 6 3 4 0.6399820800201741
0 6 3 5 -0.005340537336686215
0 7 1 1 -0.010205554150430781
0 7 1 2 0.0015908388137587017
0 7 1 3 0.01038209206139723
0 7 1 6 0.02792536120196913
0 7 2 3 -0.0040215467769957654
0 7 2 6 -0.004342740877843672
0 7 3 3 0.026396024552305872
0 7 3 4 -0.02792536120196913
0 7 3 5 0.004342740877843672
0 9 1 1 -0.13892962633978279
0 10 1 1 -1.33401241117722
0 12 1 1 -0.5424558899305403
0 13 1 1 -1.12290142274734
0 14 1 1 -0.1091907728261483
0 15 1 1 -0.05485406448119878
0 16 1 1 -0.9164984156994478
0 17 1 1 0.3533806265778463
0 18 1 1 -0.4363411210492878
0 19 1 1 -0.30863384129510774
0 20 1 1 -0.13567867203607809
0 21 1 1 0.06409012453020718
0 22 1 1 -0.36775733278182016
0 23 1 1 0.12545000157090702
0 24 1 1 -0.1380735637821157
0 25 1 1 -0.4381710616602055
0 26 1 1 -0.013729331552538054
0 27 1 1 -0.2261873474719965
0 28 1 1 -0.2847735143097424
1 1 1 1 1.0
2 1 1 2 1.0
3 1 1 3 1.0
4 1 2 2 1.0
5 1 2 3 1.0
6 1 2 6 1.0
6 1 3 5 -1.0
7 1 1 6 -1.0
7 1 3 4 1.0
8 1 1 5 1.0
8 1 2 4 -1.0
9 1 4 4 1.0
9 1 5 5 1.0
9 1 6 6 1.0
10 1 3 3 -1.0
10 8 1 1 1.0
11 1 3 3 -1.0
11 2 1 1 1.0
11 2 2 2 1.0
12 2 1 5 1.0
12 2 2 4 -1.0
13 2 4 4 1.0
13 2 5 5 1.0
13 2 6 6 1.0
14 2 3 3 -1.0
14 11 1 1 1.0
15 2 1 1 -1.0
15 2 3 3 -1.0
15 3 1 1 1.0
15 3 2 2 1.0
16 2 1 1 -0.875
16 2 1 6 -1.0
16 2 3 3 -0.875
16 2 3 4 1.0
16 3 1 5 1.0
16 3 2 4 -1.0
17 2 1 1 -0.19140625
17 2 1 6 -0.4375
17 2 3 3 -0.19140625
17 2 3 4 0.4375
17 3 4 4 1.0
17 3 5 5 1.0
17 3 6 6 1.0
18 3 1 1 -1.0
18 3 3 3 -1.0
18 4 1 1 1.0
18 4 2 2 1.0
19 3 1 6 1.0
19 3 3 4 -1.0
19 4 1 5 1.0
19 4 2 4 -1.0
20 2 1 1 -0.19140625
20 2 1 6 -0.4375
20 2 3 3 -0.19140625
20 2 3 4 0.4375
20 4 4 4 1.0
20 4 5 5 1.0
20 4 6 6 1.0
21 4 1 1 -1.0
21 4 3 3 -1.0
21 5 1 1 1.0
21 5 2 2 1.0
22 4 1 1 -0.825
22 4 1 6 -1.0
22 4 3 3 -0.825
22 4 3 4 1.0
22 5 1 5 1.0
22 5 2 4 -1.0
23 2 1 1 -0.19140625
23 2 1 6 -0.4375
23 2 3 3 -0.19140625
23 2 3 4 0.4375
23 4 1 1 -0.17015625
23 4 1 6 -0.4125
23 4 3 3 -0.17015625
23 4 3 4 0.4125
23 5 4 4 1.0
23 5 5 5 1.0
23 5 6 6 1.0
24 5 1 1 -1.0
24 5 3 3 -1.0
24 6 1 1 1.0
24 6 2 2 1.0
25 5 1 6 1.0
25 5 3 4 -1.0
25 6 1 5 1.0
25 6 2 4 -1.0
26 2 1 1 -0.19140625
26 2 1 6 -0.4375
26 2 3 3 -0.19140625
26 2 3 4 0.4375
26 4 1 1 -0.17015625
26 4 1 6 -0.4125
26 4 3 3 -0.17015625
26 4 3 4 0.4125
26 6 4 4 1.0
26 6 5 5 1.0
26 6 6 6 1.0
27 6 1 1 -1.0
27 6 3 3 -1.0
27 7 1 1 1.0
27 7 2 2 1.0
28 6 1 1 -0.551
28 6 1 6 -1.0
28 6 3 3 -0.551
28 6 3 4 1.0
28 7 1 5 1.0
28 7 2 4 -1.0
29 2 1 1 -0.19140625
29 2 1 6 -0.4375
29 2 3 3 -0.19140625
29 2 3 4 0.4375
29 4 1 1 -0.17015625
29 4 1 6 -0.4125
29 4 3 3 -0.17015625
29 4 3 4 0.4125
29 6 1 1 -0.07590025
29 6 1 6 -0.2755
29 6 3 3 -0.07590025
29 6 3 4 0.2755
29 7 4 4 1.0
29 7 5 5 1.0
29 7 6 6 1.0
